\ LP format - for model browsing. Use MPS format to capture full model detail.
Maximize
  5.0 n[0] + 3.0 n[1]
Subject To
 R0: 1.0 n[0] + 1.0 n[1] <= 150.0
 R1: 6.0 n[0] + 3.0 n[1] <= 100.0
 R2: 4.0 n[0] + 2.0 n[1] <= 30.0
End
